3 3 2
20 1 28 0 12 1 3 2 23 0 41 1 18 0 14 1 22 0 42 2 21 1 28 0 45 2 22 1 2 0 32 2 10 0 16 2 6 0 19 2 30 
20 0 40 1 5 0 30 2 27 1 25 0 44 1 27 2 16 0 44 1 26 0 6 2 19 0 30 2 40 1 23 0 11 2 21 0 5 1 15 2 44 
20 1 3 2 18 0 40 1 44 2 13 1 21 0 18 1 28 0 10 2 7 1 32 0 41 1 42 2 29 0 47 1 15 2 43 0 21 2 5 0 12 

-------------
